Geographic Exponential Decay
80 101 162 288 316 87 220 146 178 15 201 230 25 250 137 122 32 42 302 7 294 90 290 313 206 38 213 264 202 136 99 117 252 297 271 179 249 184 0 169 188 18 17 221 255 269 29 282 286 212 100 235 81 161 218 153 226 132 172 296 301 123 30 195 182 140 102 126 97 131 276 200 69 185 305 308 3 13 45 278 104
p edge 320 322
e 0 68 7.0
e 0 271 70.0
e 0 311 26.0
e 1 183 3.0
e 1 0 63.0
e 2 82 1.0
e 2 1 1.0
e 3 56 22.0
e 3 143 18.0
e 3 72 55.0
e 3 2 95.0
e 4 163 13.0
e 4 3 20.0
e 5 315 1.0
e 5 4 1.0
e 6 304 2.0
e 6 5 2.0
e 7 256 91.0
e 7 313 37.0
e 7 94 23.0
e 7 6 96.0
e 8 316 92.0
e 8 7 48.0
e 9 10 1.0
e 9 8 23.0
e 11 114 2.0
e 11 9 1.0
e 12 127 3.0
e 12 11 1.0
e 13 271 30.0
e 13 89 65.0
e 13 90 64.0
e 14 43 1.0
e 14 12 1.0
e 15 80 39.0
e 15 188 73.0
e 15 75 2.0
e 15 14 58.0
e 16 35 1.0
e 16 15 83.0
e 17 38 96.0
e 17 22 60.0
e 17 230 52.0
e 18 314 21.0
e 18 244 56.0
e 18 210 98.0
e 18 16 10.0
e 19 124 2.0
e 19 18 66.0
e 20 160 10.0
e 20 19 1.0
e 21 263 5.0
e 21 20 5.0
e 23 135 10.0
e 23 21 1.0
e 24 29 94.0
e 25 50 53.0
e 25 150 31.0
e 25 45 67.0
e 25 23 68.0
e 26 227 4.0
e 26 25 33.0
e 27 98 2.0
e 27 26 2.0
e 28 273 9.0
e 28 27 2.0
e 29 30 4.0
e 29 220 77.0
e 30 177 18.0
e 30 129 47.0
e 31 185 36.0
e 31 28 2.0
e 32 81 46.0
e 32 209 70.0
e 32 260 99.0
e 33 93 1.0
e 33 31 1.0
e 34 95 7.0
e 34 33 4.0
e 36 218 5.0
e 37 167 19.0
e 37 34 1.0
e 38 39 74.0
e 38 131 50.0
e 40 41 4.0
e 40 37 10.0
e 42 44 22.0
e 42 96 83.0
e 42 45 95.0
e 45 46 73.0
e 47 233 1.0
e 47 40 5.0
e 48 119 22.0
e 48 47 5.0
e 49 87 52.0
e 49 48 2.0
e 51 132 71.0
e 52 83 1.0
e 52 49 3.0
e 53 268 1.0
e 53 52 1.0
e 54 153 81.0
e 54 53 2.0
e 55 57 3.0
e 55 54 5.0
e 58 61 2.0
e 58 55 9.0
e 59 76 1.0
e 59 58 6.0
e 60 211 11.0
e 60 59 3.0
e 62 63 1.0
e 62 60 1.0
e 64 274 3.0
e 64 62 2.0
e 65 152 1.0
e 65 64 6.0
e 66 67 1.0
e 66 65 4.0
e 69 174 79.0
e 69 316 32.0
e 69 175 54.0
e 70 71 2.0
e 70 66 1.0
e 73 179 45.0
e 74 316 68.0
e 77 78 4.0
e 77 70 4.0
e 79 307 1.0
e 79 77 7.0
e 81 276 64.0
e 81 229 54.0
e 84 128 7.0
e 84 79 22.0
e 85 178 94.0
e 86 87 33.0
e 87 144 79.0
e 88 317 3.0
e 88 84 6.0
e 90 91 58.0
e 90 92 34.0
e 97 257 53.0
e 97 99 53.0
e 97 230 98.0
e 99 100 22.0
e 99 318 15.0
e 100 313 22.0
e 100 252 50.0
e 101 102 96.0
e 101 230 85.0
e 101 120 12.0
e 102 103 96.0
e 102 104 6.0
e 104 228 39.0
e 104 105 13.0
e 106 236 7.0
e 106 88 12.0
e 107 108 5.0
e 107 106 9.0
e 109 253 11.0
e 109 107 9.0
e 110 297 88.0
e 110 109 11.0
e 111 156 3.0
e 111 110 2.0
e 112 153 96.0
e 113 310 3.0
e 113 111 1.0
e 115 312 1.0
e 115 113 1.0
e 116 231 5.0
e 116 115 1.0
e 117 118 89.0
e 117 121 23.0
e 117 122 16.0
e 122 123 50.0
e 122 125 28.0
e 123 126 45.0
e 123 245 13.0
e 126 153 7.0
e 126 277 68.0
e 130 171 24.0
e 130 116 4.0
e 131 132 79.0
e 131 133 89.0
e 132 254 12.0
e 134 136 40.0
e 136 205 7.0
e 136 137 81.0
e 137 138 71.0
e 137 250 53.0
e 139 184 48.0
e 140 292 22.0
e 140 141 11.0
e 140 182 52.0
e 142 145 5.0
e 142 130 2.0
e 146 286 58.0
e 146 147 90.0
e 146 148 22.0
e 146 142 87.0
e 149 151 4.0
e 149 146 52.0
e 154 206 42.0
e 155 157 1.0
e 155 149 1.0
e 158 159 4.0
e 158 155 4.0
e 161 203 23.0
e 161 162 34.0
e 161 164 12.0
e 161 158 10.0
e 162 165 60.0
e 162 187 98.0
e 166 192 10.0
e 166 161 93.0
e 168 204 39.0
e 168 319 34.0
e 168 166 31.0
e 169 225 50.0
e 169 170 70.0
e 169 238 12.0
e 169 168 81.0
e 172 173 71.0
e 172 176 33.0
e 172 178 67.0
e 178 179 85.0
e 179 221 20.0
e 180 181 2.0
e 180 169 65.0
e 182 200 30.0
e 182 184 85.0
e 184 313 11.0
e 185 289 78.0
e 185 186 64.0
e 188 189 3.0
e 188 190 30.0
e 191 291 9.0
e 191 180 3.0
e 193 258 3.0
e 193 191 6.0
e 194 195 61.0
e 194 193 1.0
e 195 259 47.0
e 195 222 77.0
e 196 240 1.0
e 196 194 3.0
e 197 198 10.0
e 197 196 5.0
e 199 200 12.0
e 200 215 90.0
e 201 255 56.0
e 201 202 7.0
e 201 206 96.0
e 202 206 33.0
e 202 207 76.0
e 208 212 23.0
e 212 213 21.0
e 212 223 18.0
e 213 264 32.0
e 213 219 38.0
e 214 216 7.0
e 214 197 10.0
e 217 272 3.0
e 217 214 7.0
e 218 220 38.0
e 218 278 96.0
e 220 221 25.0
e 221 308 15.0
e 224 226 42.0
e 224 217 8.0
e 226 232 58.0
e 226 234 35.0
e 235 237 84.0
e 235 265 55.0
e 235 239 27.0
e 235 224 79.0
e 241 242 11.0
e 241 235 3.0
e 243 246 4.0
e 243 241 8.0
e 247 248 18.0
e 247 243 11.0
e 249 250 31.0
e 249 251 82.0
e 249 308 62.0
e 250 252 7.0
e 252 255 54.0
e 255 261 44.0
e 262 303 6.0
e 262 247 11.0
e 264 266 68.0
e 264 278 57.0
e 267 269 12.0
e 269 270 64.0
e 269 271 89.0
e 275 276 99.0
e 276 278 1.0
e 279 280 11.0
e 279 262 9.0
e 281 282 66.0
e 281 279 3.0
e 282 283 27.0
e 282 284 56.0
e 285 286 16.0
e 286 287 49.0
e 288 290 3.0
e 288 293 83.0
e 288 294 82.0
e 290 294 95.0
e 290 295 27.0
e 294 308 45.0
e 296 297 26.0
e 296 298 24.0
e 296 299 83.0
e 297 300 12.0
e 301 302 53.0
e 301 305 31.0
e 301 306 84.0
e 301 281 66.0
e 302 305 50.0
e 302 309 43.0
